
Welcome to IBM(R) ILOG(R) CPLEX(R) Interactive Optimizer 22.1.1.0
  with Simplex, Mixed Integer & Barrier Optimizers
5725-A06 5725-A29 5724-Y48 5724-Y49 5724-Y54 5724-Y55 5655-Y21
Copyright IBM Corp. 1988, 2022.  All Rights Reserved.

Type 'help' for a list of available commands.
Type 'help' followed by a command name for more
information on commands.

CPLEX> Selected objective sense:  MINIMIZE
Selected objective  name:  00000000
Selected RHS        name:  RHS1
Selected bound      name:  BOUND
Problem 'ee.mps' read.
Read time = 0.03 sec. (3.17 ticks)
CPLEX> New value for time limit in seconds: 7200
CPLEX> New value for parallel optimization mode: -1
CPLEX> New value for default parallel thread count: 40
CPLEX> New value for mixed integer optimality gap tolerance: 1e-13
CPLEX> Version identifier: 22.1.1.0 | 2022-11-28 | 9160aff4d
CPXPARAM_Threads                                 40
CPXPARAM_Parallel                                -1
CPXPARAM_TimeLimit                               7200
CPXPARAM_MIP_Tolerances_MIPGap                   1e-13
Found incumbent of value 0.000000 after 0.00 sec. (0.31 ticks)
Tried aggregator 2 times.
MIP Presolve eliminated 180 rows and 2745 columns.
MIP Presolve modified 6090 coefficients.
Aggregator did 713 substitutions.
Reduced MIP has 3635 rows, 7835 columns, and 28930 nonzeros.
Reduced MIP has 7835 binaries, 0 generals, 0 SOSs, and 0 indicators.
Presolve time = 0.07 sec. (68.91 ticks)
Probing time = 0.03 sec. (5.32 ticks)
Tried aggregator 1 time.
Detecting symmetries...
Reduced MIP has 3635 rows, 7835 columns, and 28930 nonzeros.
Reduced MIP has 7835 binaries, 0 generals, 0 SOSs, and 0 indicators.
Presolve time = 0.02 sec. (21.98 ticks)
Probing time = 0.02 sec. (5.12 ticks)
Clique table members: 18781.
MIP emphasis: balance optimality and feasibility.
MIP search method: dynamic search.
Parallel mode: opportunistic, using up to 40 threads.
Root relaxation solution time = 0.12 sec. (94.99 ticks)

        Nodes                                         Cuts/
   Node  Left     Objective  IInf  Best Integer    Best Bound    ItCnt     Gap

*     0+    0                            0.0000  -1.54000e+13              --- 
*     0+    0                      -6.00000e+12  -1.54000e+13           156.67%
*     0+    0                      -7.20000e+12  -1.54000e+13           113.89%
      0     0  -1.53900e+13    63  -7.20000e+12  -1.53900e+13     2202  113.75%
*     0+    0                      -1.29900e+13  -1.53900e+13            18.48%
*     0+    0                      -1.53900e+13  -1.53900e+13             0.00%
*     0+    0                      -1.53900e+13  -1.53900e+13             0.00%
      0     0  -1.53900e+13   152  -1.53900e+13      Cuts: 32     3243    0.00%
*     0+    0                      -1.53900e+13  -1.53900e+13             0.00%
      0     0  -1.53900e+13   104  -1.53900e+13      Cuts: 28     4539    0.00%
      0     0  -1.53900e+13   136  -1.53900e+13      Cuts: 60     4622    0.00%
*     0+    0                      -1.53900e+13  -1.53900e+13             0.00%
*     0+    0                      -1.53900e+13  -1.53900e+13             0.00%
      0    16        cutoff        -1.53900e+13  -1.53900e+13     6060    0.00%
Elapsed time = 2.59 sec. (1237.37 ticks, tree = 0.02 MB, solutions = 10)
    462    74        cutoff        -1.53900e+13  -1.53900e+13    26808    0.00%
   1634   320  -1.53900e+13    92  -1.53900e+13  -1.53900e+13    75327    0.00%
   2525   185  -1.53900e+13    77  -1.53900e+13  -1.53900e+13    54952    0.00%
   2983   661  -1.53900e+13   182  -1.53900e+13  -1.53900e+13   121260    0.00%
   3401   961  -1.53900e+13   174  -1.53900e+13  -1.53900e+13   165661    0.00%
   4035  1165        cutoff        -1.53900e+13  -1.53900e+13   211059    0.00%
   4742  1471  -1.53900e+13    60  -1.53900e+13  -1.53900e+13   265854    0.00%
   5400  1227  -1.53900e+13   163  -1.53900e+13  -1.53900e+13   221654    0.00%
   6025  1476  -1.53900e+13   132  -1.53900e+13  -1.53900e+13   270446    0.00%
*  7613  2309      integral     0  -1.53900e+13  -1.53900e+13   610311    0.00%
*  7840  2295      integral     0  -1.53900e+13  -1.53900e+13   591487    0.00%
   8446  2246        cutoff        -1.53900e+13  -1.53900e+13   427349    0.00%
Elapsed time = 7.82 sec. (4339.40 ticks, tree = 30.45 MB, solutions = 16)
  10315  2461  -1.53900e+13   103  -1.53900e+13  -1.53900e+13   640428    0.00%

Performing restart 1

Repeating presolve.
Tried aggregator 4 times.
MIP Presolve eliminated 660 rows and 2322 columns.
MIP Presolve modified 1938 coefficients.
Aggregator did 611 substitutions.
Reduced MIP has 2328 rows, 4814 columns, and 17637 nonzeros.
Reduced MIP has 4814 binaries, 0 generals, 0 SOSs, and 0 indicators.
Presolve time = 0.12 sec. (121.12 ticks)
Tried aggregator 2 times.
MIP Presolve eliminated 54 rows and 56 columns.
MIP Presolve modified 2 coefficients.
Aggregator did 2 substitutions.
Reduced MIP has 2272 rows, 4742 columns, and 17418 nonzeros.
Reduced MIP has 4742 binaries, 0 generals, 0 SOSs, and 0 indicators.
Presolve time = 0.03 sec. (28.84 ticks)
Tried aggregator 1 time.
MIP Presolve eliminated 2 rows and 2 columns.
Reduced MIP has 2270 rows, 4740 columns, and 17408 nonzeros.
Reduced MIP has 4740 binaries, 0 generals, 0 SOSs, and 0 indicators.
Presolve time = 0.02 sec. (18.98 ticks)
Represolve time = 0.31 sec. (236.01 ticks)
  10555     0  -1.53900e+13   208  -1.53900e+13      Cuts: 37   792322    0.00%
  10555     0  -1.53900e+13   279  -1.53900e+13      Cuts: 43   792524    0.00%
  10555     0  -1.53900e+13   269  -1.53900e+13      Cuts: 52   792723    0.00%
  10555     0  -1.53900e+13   324  -1.53900e+13      Cuts: 32   792868    0.00%
  10555     0  -1.53900e+13   297  -1.53900e+13      Cuts: 28   793007    0.00%
  10555     0  -1.53900e+13   349  -1.53900e+13      Cuts: 24   793170    0.00%
  10555     0  -1.53900e+13   296  -1.53900e+13      Cuts: 27   793266    0.00%
  10555     0  -1.53900e+13   302  -1.53900e+13      Cuts: 13   793303    0.00%
  10555     0  -1.53900e+13   299  -1.53900e+13      Cuts: 26   793397    0.00%
  10555     0  -1.53900e+13   341  -1.53900e+13      Cuts: 27   793437    0.00%
  10555     0  -1.53900e+13   360  -1.53900e+13      Cuts: 19   793491    0.00%
  10555     0  -1.53900e+13   335  -1.53900e+13      Cuts: 18   793626    0.00%
  10555     0  -1.53900e+13   307  -1.53900e+13      Cuts: 25   793724    0.00%
  10555     0  -1.53900e+13   377  -1.53900e+13      Cuts: 19   793767    0.00%
  10555     0  -1.53900e+13   392  -1.53900e+13      Cuts: 16   793824    0.00%
  10555     0  -1.53900e+13   347  -1.53900e+13      Cuts: 22   793906    0.00%
  10555     0  -1.53900e+13   375  -1.53900e+13      Cuts: 26   793941    0.00%
  10555    15        cutoff        -1.53900e+13  -1.53900e+13   797564    0.00%
  11864    40        cutoff        -1.53900e+13  -1.53900e+13   829766    0.00%
  12364    44  -1.53900e+13   208  -1.53900e+13  -1.53900e+13   840756    0.00%

GUB cover cuts applied:  1
Clique cuts applied:  13
Cover cuts applied:  296
Flow cuts applied:  1
Mixed integer rounding cuts applied:  17
Zero-half cuts applied:  91
Lift and project cuts applied:  1
Gomory fractional cuts applied:  13

Root node processing (before b&c):
  Real time             =    1.58 sec. (1224.67 ticks)
Parallel b&c, 40 threads:
  Real time             =   13.45 sec. (9284.22 ticks)
  Sync time (average)   =    2.68 sec.
  Wait time (average)   =    0.10 sec.
                          ------------
Total (root+branch&cut) =   15.03 sec. (10508.90 ticks)

Solution pool: 16 solutions saved.

MIP - Integer optimal solution:  Objective = -1.5389999689e+13
Solution time =   15.16 sec.  Iterations = 902639  Nodes = 12408
Deterministic time = 10508.93 ticks  (692.99 ticks/sec)

CPLEX> Solution 'p17' written to file 'ee.sol'.
CPLEX> 